c t pwmc
c file mc2022_track4_067.cnf
p cnf 135 468
c p show 2 3 17 19 22 24 27 30 31 32 35 37 53 57 61 63 67 70 71 72 74 75 78 86 87 91 96 97 100 103 105 109 110 114 118 120 124 125 127 128 129 133 0
10 11 0
19 20 21 0
28 29 31 30 0
37 38 40 41 39 0
46 47 49 51 50 48 0
55 60 61 59 57 56 58 0
65 68 69 67 66 71 70 64 0
73 77 81 78 74 75 76 80 79 0
86 87 89 84 90 83 85 88 0
93 97 99 95 98 92 94 96 0
105 106 107 104 103 101 102 108 0
112 113 115 111 116 114 110 117 0
122 124 125 119 120 123 126 121 0
133 134 135 132 131 128 129 130 0
-128 -20 0
-129 -21 0
-130 -22 0
-131 -23 0
-132 -24 0
-133 -25 0
-134 -26 0
-135 -27 0
-83 -92 0
-84 -93 0
-85 -94 0
-86 -95 0
-87 -96 0
-88 -97 0
-89 -98 0
-90 -99 0
-65 -110 0
-66 -111 0
-67 -112 0
-68 -113 0
-69 -114 0
-70 -115 0
-71 -116 0
-72 -117 0
-92 -20 0
-93 -21 0
-94 -22 0
-95 -23 0
-96 -24 0
-97 -25 0
-98 -26 0
-99 -27 0
-38 -110 0
-39 -111 0
-40 -112 0
-41 -113 0
-42 -114 0
-43 -115 0
-44 -116 0
-45 -117 0
-2 -128 0
-3 -129 0
-4 -130 0
-5 -131 0
-6 -132 0
-7 -133 0
-8 -134 0
-9 -135 0
-83 -128 0
-84 -129 0
-85 -130 0
-86 -131 0
-87 -132 0
-88 -133 0
-89 -134 0
-90 -135 0
-29 -101 0
-30 -102 0
-31 -103 0
-32 -104 0
-33 -105 0
-34 -106 0
-35 -107 0
-36 -108 0
-11 -101 0
-12 -102 0
-13 -103 0
-14 -104 0
-15 -105 0
-16 -106 0
-17 -107 0
-18 -108 0
-119 -92 0
-120 -93 0
-121 -94 0
-122 -95 0
-123 -96 0
-124 -97 0
-125 -98 0
-126 -99 0
-55 -19 0
-56 -20 0
-57 -21 0
-58 -22 0
-59 -23 0
-60 -24 0
-61 -25 0
-62 -26 0
-63 -27 0
-2 -92 0
-3 -93 0
-4 -94 0
-5 -95 0
-6 -96 0
-7 -97 0
-8 -98 0
-9 -99 0
-119 -20 0
-120 -21 0
-121 -22 0
-122 -23 0
-123 -24 0
-124 -25 0
-125 -26 0
-126 -27 0
-119 -47 0
-120 -48 0
-121 -49 0
-122 -50 0
-123 -51 0
-124 -52 0
-125 -53 0
-126 -54 0
-128 -74 0
-129 -75 0
-130 -76 0
-131 -77 0
-132 -78 0
-133 -79 0
-134 -80 0
-135 -81 0
-101 -110 0
-111 -102 0
-103 -112 0
-104 -113 0
-105 -114 0
-106 -115 0
-107 -116 0
-108 -117 0
-83 -20 0
-84 -21 0
-85 -22 0
-86 -23 0
-87 -24 0
-88 -25 0
-89 -26 0
-90 -27 0
-83 -47 0
-84 -48 0
-85 -49 0
-86 -50 0
-87 -51 0
-88 -52 0
-89 -53 0
-90 -54 0
-38 -101 0
-39 -102 0
-40 -103 0
-41 -104 0
-42 -105 0
-43 -106 0
-44 -107 0
-45 -108 0
-83 -101 0
-84 -102 0
-85 -103 0
-86 -104 0
-87 -105 0
-88 -106 0
-89 -107 0
-90 -108 0
-2 -119 0
-3 -120 0
-4 -121 0
-5 -122 0
-6 -123 0
-7 -124 0
-8 -125 0
-9 -126 0
-110 -11 0
-12 -111 0
-13 -112 0
-14 -113 0
-15 -114 0
-16 -115 0
-17 -116 0
-18 -117 0
-46 -19 0
-47 -20 0
-48 -21 0
-49 -22 0
-50 -23 0
-51 -24 0
-52 -25 0
-53 -26 0
-54 -27 0
-2 -83 0
-3 -84 0
-4 -85 0
-5 -86 0
-6 -87 0
-7 -88 0
-8 -89 0
-9 -90 0
-47 -128 0
-48 -129 0
-49 -130 0
-50 -131 0
-51 -132 0
-52 -133 0
-53 -134 0
-54 -135 0
-110 -92 0
-111 -93 0
-112 -94 0
-113 -95 0
-114 -96 0
-115 -97 0
-116 -98 0
-117 -99 0
-119 -74 0
-120 -75 0
-121 -76 0
-122 -77 0
-123 -78 0
-124 -79 0
-125 -80 0
-126 -81 0
-101 -119 0
-102 -120 0
-103 -121 0
-104 -122 0
-105 -123 0
-106 -124 0
-107 -125 0
-108 -126 0
-110 -20 0
-111 -21 0
-112 -22 0
-113 -23 0
-114 -24 0
-115 -25 0
-116 -26 0
-117 -27 0
-2 -110 0
-3 -111 0
-4 -112 0
-5 -113 0
-6 -114 0
-7 -115 0
-8 -116 0
-9 -117 0
-110 -83 0
-111 -84 0
-112 -85 0
-113 -86 0
-114 -87 0
-115 -88 0
-116 -89 0
-117 -90 0
-110 -128 0
-111 -129 0
-112 -130 0
-113 -131 0
-114 -132 0
-115 -133 0
-116 -134 0
-117 -135 0
-83 -11 0
-12 -84 0
-13 -85 0
-14 -86 0
-15 -87 0
-16 -88 0
-17 -89 0
-18 -90 0
-73 -19 0
-20 -74 0
-21 -75 0
-22 -76 0
-23 -77 0
-24 -78 0
-25 -79 0
-26 -80 0
-27 -81 0
-19 -10 0
-11 -20 0
-12 -21 0
-13 -22 0
-14 -23 0
-15 -24 0
-16 -25 0
-17 -26 0
-18 -27 0
-119 -128 0
-120 -129 0
-121 -130 0
-122 -131 0
-123 -132 0
-124 -133 0
-125 -134 0
-126 -135 0
-47 -101 0
-48 -102 0
-49 -103 0
-50 -104 0
-51 -105 0
-52 -106 0
-53 -107 0
-54 -108 0
-119 -11 0
-12 -120 0
-13 -121 0
-14 -122 0
-15 -123 0
-16 -124 0
-17 -125 0
-18 -126 0
-92 -101 0
-93 -102 0
-94 -103 0
-95 -104 0
-96 -105 0
-97 -106 0
-98 -107 0
-99 -108 0
-37 -19 0
-38 -20 0
-39 -21 0
-40 -22 0
-41 -23 0
-42 -24 0
-43 -25 0
-44 -26 0
-45 -27 0
-110 -74 0
-111 -75 0
-112 -76 0
-113 -77 0
-114 -78 0
-115 -79 0
-116 -80 0
-117 -81 0
-101 -128 0
-102 -129 0
-103 -130 0
-104 -131 0
-105 -132 0
-106 -133 0
-107 -134 0
-108 -135 0
-101 -20 0
-102 -21 0
-103 -22 0
-104 -23 0
-105 -24 0
-106 -25 0
-107 -26 0
-108 -27 0
-2 -101 0
-3 -102 0
-4 -103 0
-5 -104 0
-6 -105 0
-7 -106 0
-8 -107 0
-9 -108 0
-65 -101 0
-66 -102 0
-67 -103 0
-68 -104 0
-69 -105 0
-70 -106 0
-71 -107 0
-72 -108 0
-110 -119 0
-120 -111 0
-112 -121 0
-113 -122 0
-114 -123 0
-115 -124 0
-116 -125 0
-117 -126 0
-92 -11 0
-12 -93 0
-13 -94 0
-14 -95 0
-15 -96 0
-16 -97 0
-17 -98 0
-18 -99 0
-64 -19 0
-65 -20 0
-66 -21 0
-67 -22 0
-68 -23 0
-69 -24 0
-70 -25 0
-71 -26 0
-72 -27 0
-38 -119 0
-39 -120 0
-40 -121 0
-41 -122 0
-42 -123 0
-43 -124 0
-44 -125 0
-45 -126 0
-83 -119 0
-84 -120 0
-85 -121 0
-86 -122 0
-87 -123 0
-88 -124 0
-89 -125 0
-90 -126 0
-47 -110 0
-48 -111 0
-49 -112 0
-50 -113 0
-51 -114 0
-52 -115 0
-53 -116 0
-54 -117 0
-128 -11 0
-129 -12 0
-130 -13 0
-131 -14 0
-132 -15 0
-133 -16 0
-134 -17 0
-135 -18 0
-92 -128 0
-93 -129 0
-94 -130 0
-95 -131 0
-96 -132 0
-97 -133 0
-98 -134 0
-99 -135 0
-28 -19 0
-29 -20 0
-30 -21 0
-31 -22 0
-32 -23 0
-33 -24 0
-34 -25 0
-35 -26 0
-36 -27 0
-74 -101 0
-75 -102 0
-76 -103 0
-77 -104 0
-78 -105 0
-79 -106 0
-80 -107 0
-81 -108 0
1 0
-127 0
-91 0
-118 0
-82 0
-109 0
-100 0
c p weight 128 0.46277016 0
c p weight -128 0.53722984 0
c p weight 129 0.58184683 0
c p weight -129 0.41815317 0
c p weight 2 0.64915242 0
c p weight -2 0.35084758 0
c p weight 3 0.21530498 0
c p weight -3 0.78469502 0
c p weight 133 0.51099173 0
c p weight -133 0.48900827 0
c p weight 17 0.75907891 0
c p weight -17 0.24092109 0
c p weight 19 0.33214548 0
c p weight -19 0.66785452 0
c p weight 22 0.26862537 0
c p weight -22 0.73137463 0
c p weight 24 0.54001266 0
c p weight -24 0.45998734 0
c p weight 27 0.39033197 0
c p weight -27 0.60966803 0
c p weight 30 0.64704787 0
c p weight -30 0.35295213 0
c p weight 31 0.63872234 0
c p weight -31 0.36127766 0
c p weight 32 0.58358239 0
c p weight -32 0.41641761 0
c p weight 35 0.31894608 0
c p weight -35 0.68105392 0
c p weight 37 0.42367969 0
c p weight -37 0.57632031 0
c p weight 53 0.30946611 0
c p weight -53 0.69053389 0
c p weight 57 0.57641526 0
c p weight -57 0.42358474 0
c p weight 61 0.23800057 0
c p weight -61 0.76199943 0
c p weight 63 0.48601881 0
c p weight -63 0.51398119 0
c p weight 67 0.29635308 0
c p weight -67 0.70364692 0
c p weight 70 0.43383624 0
c p weight -70 0.56616376 0
c p weight 71 0.59311355 0
c p weight -71 0.40688645 0
c p weight 72 0.43203685 0
c p weight -72 0.56796315 0
c p weight 74 0.64929181 0
c p weight -74 0.35070819 0
c p weight 75 0.49600598 0
c p weight -75 0.50399402 0
c p weight 78 0.67438817 0
c p weight -78 0.32561183 0
c p weight 86 0.75743067 0
c p weight -86 0.24256933 0
c p weight 87 0.25076390 0
c p weight -87 0.74923610 0
c p weight 91 0.56887205 0
c p weight -91 0.43112795 0
c p weight 96 0.23917419 0
c p weight -96 0.76082581 0
c p weight 97 0.76488259 0
c p weight -97 0.23511741 0
c p weight 100 0.59952615 0
c p weight -100 0.40047385 0
c p weight 103 0.30470019 0
c p weight -103 0.69529981 0
c p weight 105 0.36847623 0
c p weight -105 0.63152377 0
c p weight 109 0.43702464 0
c p weight -109 0.56297536 0
c p weight 110 0.72401387 0
c p weight -110 0.27598613 0
c p weight 114 0.51630887 0
c p weight -114 0.48369113 0
c p weight 118 0.38411416 0
c p weight -118 0.61588584 0
c p weight 120 0.69183952 0
c p weight -120 0.30816048 0
c p weight 124 0.68214055 0
c p weight -124 0.31785945 0
c p weight 125 0.58197078 0
c p weight -125 0.41802922 0
c p weight 127 0.75711606 0
c p weight -127 0.24288394 0
